Generated POSCAR
1.0
15.532400 0.000000 0.000000
-7.766200 13.451453 0.000000
0.000000 0.000000 22.681999
Ce Rh O H C O
32 4 63 14 7 2
Direct
0.083330 0.166670 0.104840
0.333333 0.166670 0.104840
0.583330 0.166670 0.104840
0.833330 0.166670 0.104840
0.083330 0.416670 0.104840
0.333333 0.416670 0.104840
0.583330 0.416670 0.104840
0.833330 0.416670 0.104840
0.083330 0.666667 0.104840
0.333333 0.666667 0.104840
0.583330 0.666667 0.104840
0.833330 0.666667 0.104840
0.083330 0.916670 0.104840
0.333333 0.916670 0.104840
0.583330 0.916670 0.104840
0.833330 0.916670 0.104840
0.166658 0.080270 0.244019
0.416492 0.083641 0.243401
0.666861 0.085419 0.242819
0.915710 0.081998 0.243686
0.158388 0.317060 0.239839
0.413939 0.325714 0.243622
0.667855 0.333137 0.243043
0.915978 0.333882 0.243399
0.160774 0.591354 0.244162
0.427007 0.590263 0.243278
0.670959 0.578984 0.246038
0.915435 0.582220 0.243635
0.166155 0.834832 0.244522
0.412215 0.838053 0.243386
0.671566 0.843119 0.242798
0.923529 0.835353 0.246977
0.523923 0.554977 0.369298
0.524644 0.728804 0.370279
0.672836 0.716618 0.362964
0.537661 0.647883 0.455205
0.250000 0.250000 0.069890
0.750000 0.250000 0.069890
0.250000 0.750000 0.069890
0.750000 0.750000 0.069890
0.000000 0.000000 0.069890
0.250000 0.000000 0.069890
0.500000 0.000000 0.069890
0.750000 0.000000 0.069890
0.000000 0.250000 0.069890
0.500000 0.250000 0.069890
0.000000 0.500000 0.069890
0.250000 0.500000 0.069890
0.500000 0.500000 0.069890
0.750000 0.500000 0.069890
0.000000 0.750000 0.069890
0.500000 0.750000 0.069890
0.166670 0.083330 0.139780
0.666667 0.083330 0.139780
0.166670 0.333333 0.139780
0.416670 0.333333 0.139780
0.666667 0.333333 0.139780
0.916670 0.333333 0.139780
0.166670 0.583330 0.139780
0.666667 0.583330 0.139780
0.166670 0.833330 0.139780
0.416670 0.833330 0.139780
0.666667 0.833330 0.139780
0.916670 0.833330 0.139780
0.416670 0.083330 0.139780
0.916670 0.083330 0.139780
0.416670 0.583330 0.139780
0.916670 0.583330 0.139780
0.093000 0.416285 0.213112
0.578616 0.412044 0.208163
0.088841 0.919705 0.207663
0.582769 0.915738 0.207610
0.082756 0.165480 0.205067
0.333123 0.165953 0.206677
0.583753 0.167116 0.207165
0.833398 0.167186 0.207041
0.326845 0.418000 0.213482
0.832259 0.413381 0.205508
0.081797 0.668531 0.206174
0.335758 0.666897 0.213061
0.587424 0.674511 0.211329
0.835001 0.664545 0.209136
0.333927 0.919419 0.206250
0.829898 0.917587 0.208403
0.007097 0.012814 0.279862
0.252770 0.002953 0.280065
0.499877 0.002054 0.278048
0.749525 0.002855 0.279309
0.999722 0.245018 0.279009
0.496021 0.246673 0.279184
0.988978 0.492456 0.279595
0.491062 0.478824 0.296186
0.753114 0.489914 0.280671
0.008539 0.746789 0.281980
0.501632 0.770921 0.293889
0.247068 0.244802 0.278635
0.750219 0.248603 0.278426
0.254995 0.763559 0.281553
0.756524 0.764025 0.295472
0.217314 0.463339 0.574124
0.333702 0.490098 0.541741
0.332201 0.562662 0.603150
0.246369 0.555578 0.478403
0.431061 0.724766 0.540773
0.433363 0.647848 0.482513
0.346209 0.708759 0.414829
0.345571 0.787878 0.472495
0.532914 0.878067 0.476079
0.534316 0.799160 0.418497
0.450170 0.862501 0.349129
0.448437 0.941495 0.406804
0.565061 0.962786 0.377293
0.209490 0.715897 0.607753
0.292753 0.524688 0.561800
0.286198 0.597719 0.518853
0.226201 0.639173 0.546280
0.390299 0.681545 0.500893
0.387130 0.752266 0.454608
0.491935 0.833911 0.436468
0.488612 0.903883 0.389920
0.257001 0.695982 0.597052
0.145500 0.628590 0.527533
